p cnf 7230 15
135 -1579 0
1502 -1579 0
-138 -1430 1580 0
-135 -1502 1578 0
138 -1583 0
1577 -1579 0
-1582 1583 0
-1581 1582 0
-1580 1581 0
-1578 1579 0
1430 -1583 0
1576 -1577 0
1420 -1585 0
1296 -1585 0
-1576 1577 0
